p cnf 44 127
34 35 36 37 0
38 39 40 41 42 0
-1 -10 0
-1 -20 0
-1 -23 0
-1 -28 0
-10 -20 0
-10 -23 0
-10 -28 0
-20 -23 0
-20 -28 0
-23 -28 0
-2 -5 0
-2 -24 0
-2 -34 0
-2 -38 0
-5 -24 0
-5 -34 0
-5 -38 0
-24 -34 0
-24 -38 0
-34 -38 0
-6 -11 0
-6 -15 0
-6 -21 0
-6 -29 0
-6 -35 0
-6 -39 0
-11 -15 0
-11 -21 0
-11 -29 0
-11 -35 0
-11 -39 0
-15 -21 0
-15 -29 0
-15 -35 0
-15 -39 0
-21 -29 0
-21 -35 0
-21 -39 0
-29 -35 0
-29 -39 0
-35 -39 0
-3 -7 0
-3 -12 0
-3 -16 0
-3 -25 0
-3 -30 0
-3 -36 0
-3 -40 0
-7 -12 0
-7 -16 0
-7 -25 0
-7 -30 0
-7 -36 0
-7 -40 0
-12 -16 0
-12 -25 0
-12 -30 0
-12 -36 0
-12 -40 0
-16 -25 0
-16 -30 0
-16 -36 0
-16 -40 0
-25 -30 0
-25 -36 0
-25 -40 0
-30 -36 0
-30 -40 0
-36 -40 0
-8 -13 0
-8 -17 0
-8 -22 0
-8 -26 0
-8 -31 0
-8 -37 0
-8 -41 0
-8 -43 0
-13 -17 0
-13 -22 0
-13 -26 0
-13 -31 0
-13 -37 0
-13 -41 0
-13 -43 0
-17 -22 0
-17 -26 0
-17 -31 0
-17 -37 0
-17 -41 0
-17 -43 0
-22 -26 0
-22 -31 0
-22 -37 0
-22 -41 0
-22 -43 0
-26 -31 0
-26 -37 0
-26 -41 0
-26 -43 0
-31 -37 0
-31 -41 0
-31 -43 0
-37 -41 0
-37 -43 0
-41 -43 0
-18 -27 0
-18 -32 0
-18 -42 0
-18 -44 0
-27 -32 0
-27 -42 0
-27 -44 0
-32 -42 0
-32 -44 0
-42 -44 0
-4 -9 0
-4 -14 0
-4 -19 0
-4 -33 0
-9 -14 0
-9 -19 0
-9 -33 0
-14 -19 0
-14 -33 0
-19 -33 0
